(set-option :produce-models true); benchmark generated from python API
(set-info :status unknown)
(declare-fun l_0_0_27 () Real)
(declare-fun l_0_0_26 () Real)
(declare-fun _a_0_ () Real)
(declare-fun l_0_0_9 () Real)
(declare-fun l_0_0_8 () Real)
(declare-fun l_0_0_3 () Real)
(declare-fun l_0_0_25 () Real)
(declare-fun l_0_0_2 () Real)
(declare-fun _a_1_ () Real)
(declare-fun l_0_0_29 () Real)
(declare-fun l_0_0_28 () Real)
(declare-fun l_0_0_21 () Real)
(declare-fun l_0_0_20 () Real)
(declare-fun l_0_0_15 () Real)
(declare-fun l_0_0_14 () Real)
(declare-fun _a_2_ () Real)
(declare-fun l_0_0_7 () Real)
(declare-fun l_0_0_1 () Real)
(declare-fun _a_3_ () Real)
(declare-fun l_0_0_19 () Real)
(declare-fun l_0_0_13 () Real)
(declare-fun l_0_0_10 () Real)
(declare-fun l_0_0_4 () Real)
(declare-fun l_0_0_5 () Real)
(declare-fun l_0_0_11 () Real)
(declare-fun l_0_0_6 () Real)
(declare-fun l_0_0_22 () Real)
(declare-fun l_0_0_16 () Real)
(declare-fun l_0_0_12 () Real)
(declare-fun l_0_0_30 () Real)
(declare-fun l_0_0_23 () Real)
(declare-fun l_0_0_17 () Real)
(declare-fun l_0_0_24 () Real)
(declare-fun l_0_0_18 () Real)
(declare-fun l_0_1_9 () Real)
(declare-fun l_0_1_8 () Real)
(declare-fun l_0_1_27 () Real)
(declare-fun l_0_1_26 () Real)
(declare-fun l_0_1_3 () Real)
(declare-fun l_0_1_2 () Real)
(declare-fun l_0_1_7 () Real)
(declare-fun l_0_1_25 () Real)
(declare-fun l_0_1_15 () Real)
(declare-fun l_0_1_14 () Real)
(declare-fun l_0_1_13 () Real)
(declare-fun l_0_1_1 () Real)
(declare-fun l_0_1_29 () Real)
(declare-fun l_0_1_28 () Real)
(declare-fun l_0_1_21 () Real)
(declare-fun l_0_1_20 () Real)
(declare-fun l_0_1_11 () Real)
(declare-fun l_0_1_10 () Real)
(declare-fun l_0_1_5 () Real)
(declare-fun l_0_1_4 () Real)
(declare-fun l_0_1_19 () Real)
(declare-fun l_0_1_17 () Real)
(declare-fun l_0_1_16 () Real)
(declare-fun l_0_1_30 () Real)
(declare-fun l_0_1_23 () Real)
(declare-fun l_0_1_22 () Real)
(declare-fun l_0_1_12 () Real)
(declare-fun l_0_1_6 () Real)
(declare-fun l_0_1_18 () Real)
(declare-fun l_0_1_24 () Real)
(declare-fun l_0_2_9 () Real)
(declare-fun l_0_2_8 () Real)
(declare-fun l_0_2_33 () Real)
(declare-fun l_0_2_32 () Real)
(declare-fun l_0_2_27 () Real)
(declare-fun l_0_2_26 () Real)
(declare-fun l_0_2_3 () Real)
(declare-fun l_0_2_2 () Real)
(declare-fun l_0_2_35 () Real)
(declare-fun l_0_2_34 () Real)
(declare-fun l_0_2_29 () Real)
(declare-fun l_0_2_28 () Real)
(declare-fun l_0_2_21 () Real)
(declare-fun l_0_2_20 () Real)
(declare-fun l_0_2_11 () Real)
(declare-fun l_0_2_10 () Real)
(declare-fun l_0_2_5 () Real)
(declare-fun l_0_2_4 () Real)
(declare-fun l_0_2_7 () Real)
(declare-fun l_0_2_31 () Real)
(declare-fun l_0_2_25 () Real)
(declare-fun l_0_2_15 () Real)
(declare-fun l_0_2_14 () Real)
(declare-fun l_0_2_13 () Real)
(declare-fun l_0_2_1 () Real)
(declare-fun l_0_2_19 () Real)
(declare-fun l_0_2_17 () Real)
(declare-fun l_0_2_16 () Real)
(declare-fun l_0_2_36 () Real)
(declare-fun l_0_2_30 () Real)
(declare-fun l_0_2_23 () Real)
(declare-fun l_0_2_22 () Real)
(declare-fun l_0_2_12 () Real)
(declare-fun l_0_2_6 () Real)
(declare-fun l_0_2_18 () Real)
(declare-fun l_0_2_24 () Real)
(declare-fun l_0_3_9 () Real)
(declare-fun l_0_3_8 () Real)
(declare-fun l_0_3_27 () Real)
(declare-fun l_0_3_26 () Real)
(declare-fun l_0_3_3 () Real)
(declare-fun l_0_3_2 () Real)
(declare-fun l_0_3_7 () Real)
(declare-fun l_0_3_25 () Real)
(declare-fun l_0_3_15 () Real)
(declare-fun l_0_3_14 () Real)
(declare-fun l_0_3_1 () Real)
(declare-fun l_0_3_29 () Real)
(declare-fun l_0_3_28 () Real)
(declare-fun l_0_3_21 () Real)
(declare-fun l_0_3_20 () Real)
(declare-fun l_0_3_11 () Real)
(declare-fun l_0_3_10 () Real)
(declare-fun l_0_3_5 () Real)
(declare-fun l_0_3_4 () Real)
(declare-fun l_0_3_13 () Real)
(declare-fun l_0_3_19 () Real)
(declare-fun l_0_3_17 () Real)
(declare-fun l_0_3_16 () Real)
(declare-fun l_0_3_30 () Real)
(declare-fun l_0_3_23 () Real)
(declare-fun l_0_3_22 () Real)
(declare-fun l_0_3_12 () Real)
(declare-fun l_0_3_6 () Real)
(declare-fun l_0_3_18 () Real)
(declare-fun l_0_3_24 () Real)
(assert
 (= (- (- _a_0_ (* l_0_0_26 l_0_0_26)) (* l_0_0_27 l_0_0_27)) 0.0))
(assert
 (let ((?x176 (* l_0_0_9 l_0_0_9)))
 (let ((?x174 (* l_0_0_8 l_0_0_8)))
 (let ((?x172 (* l_0_0_3 l_0_0_3)))
 (let ((?x166 (* l_0_0_2 l_0_0_2)))
 (let ((?x167 (+ _a_1_ ?x166)))
 (let ((?x177 (- (- (+ (- ?x167 (* (* 2.0 l_0_0_25) l_0_0_26)) ?x172) ?x174) ?x176)))
 (= ?x177 0.0))))))))
(assert
 (let ((?x200 (* l_0_0_21 l_0_0_21)))
 (let ((?x198 (* l_0_0_20 l_0_0_20)))
 (let ((?x199 (- (+ (+ _a_2_ (* l_0_0_14 l_0_0_14)) (* l_0_0_15 l_0_0_15)) ?x198)))
 (let ((?x207 (- (- (- ?x199 ?x200) (* (* 2.0 l_0_0_26) l_0_0_28)) (* (* 2.0 l_0_0_27) l_0_0_29))))
 (= ?x207 0.0))))))
(assert
 (let ((?x232 (* l_0_0_25 l_0_0_25)))
 (let ((?x236 (- (- (+ _a_3_ (* (* 2.0 l_0_0_1) l_0_0_2)) ?x232) (* (* 2.0 l_0_0_7) l_0_0_8))))
 (= ?x236 0.0))))
(assert
 (= (- (* l_0_0_1 l_0_0_1) (* l_0_0_7 l_0_0_7)) 0.0))
(assert
 (let ((?x264 (* l_0_0_19 l_0_0_19)))
 (let ((?x262 (* l_0_0_13 l_0_0_13)))
 (let ((?x261 (- (* (* 2.0 l_0_0_1) l_0_0_4) (* (* 2.0 l_0_0_10) l_0_0_7))))
 (= (- (+ ?x261 ?x262) ?x264) 0.0)))))
(assert
 (let ((?x284 (- (* (* (- 2.0) l_0_0_10) l_0_0_8) (* (* 2.0 l_0_0_11) l_0_0_9))))
 (let ((?x290 (- (+ ?x284 (* (* 2.0 l_0_0_13) l_0_0_14)) (* (* 2.0 l_0_0_19) l_0_0_20))))
 (let ((?x295 (- (+ ?x290 (* (* 2.0 l_0_0_2) l_0_0_4)) (* (* 2.0 l_0_0_25) l_0_0_28))))
 (= (+ ?x295 (* (* 2.0 l_0_0_3) l_0_0_5)) 0.0)))))
(assert
 (let ((?x347 (* l_0_0_6 l_0_0_6)))
 (let ((?x345 (* l_0_0_5 l_0_0_5)))
 (let ((?x343 (* l_0_0_4 l_0_0_4)))
 (let ((?x337 (* l_0_0_12 l_0_0_12)))
 (let ((?x340 (+ (- (- (* (- l_0_0_10) l_0_0_10) (* l_0_0_11 l_0_0_11)) ?x337) (* (* 2.0 l_0_0_13) l_0_0_16))))
 (let ((?x348 (+ (+ (+ (- ?x340 (* (* 2.0 l_0_0_19) l_0_0_22)) ?x343) ?x345) ?x347)))
 (= ?x348 0.0))))))))
(assert
 (let ((?x389 (* l_0_0_30 l_0_0_30)))
 (let ((?x387 (* l_0_0_29 l_0_0_29)))
 (let ((?x385 (* l_0_0_28 l_0_0_28)))
 (let ((?x378 (+ (* (* 2.0 l_0_0_14) l_0_0_16) (* (* 2.0 l_0_0_15) l_0_0_17))))
 (let ((?x384 (- (- ?x378 (* (* 2.0 l_0_0_20) l_0_0_22)) (* (* 2.0 l_0_0_21) l_0_0_23))))
 (= (- (- (- ?x384 ?x385) ?x387) ?x389) 0.0)))))))
(assert
 (let ((?x431 (* l_0_0_24 l_0_0_24)))
 (let ((?x429 (* l_0_0_23 l_0_0_23)))
 (let ((?x427 (* l_0_0_22 l_0_0_22)))
 (let ((?x425 (* l_0_0_18 l_0_0_18)))
 (let ((?x428 (- (+ (+ (* l_0_0_16 l_0_0_16) (* l_0_0_17 l_0_0_17)) ?x425) ?x427)))
 (= (- (- ?x428 ?x429) ?x431) 0.0)))))))
(assert
 (>= l_0_0_1 0.0))
(assert
 (>= l_0_0_3 0.0))
(assert
 (>= l_0_0_6 0.0))
(assert
 (>= l_0_0_7 0.0))
(assert
 (>= l_0_0_9 0.0))
(assert
 (>= l_0_0_12 0.0))
(assert
 (>= l_0_0_13 0.0))
(assert
 (>= l_0_0_15 0.0))
(assert
 (>= l_0_0_18 0.0))
(assert
 (>= l_0_0_19 0.0))
(assert
 (>= l_0_0_21 0.0))
(assert
 (>= l_0_0_24 0.0))
(assert
 (>= l_0_0_25 0.0))
(assert
 (>= l_0_0_27 0.0))
(assert
 (>= l_0_0_30 0.0))
(assert
 (let ((?x467 (* l_0_1_27 l_0_1_27)))
 (let ((?x465 (* l_0_1_26 l_0_1_26)))
 (let ((?x466 (- (* (- _a_0_) (+ (* l_0_1_2 l_0_1_2) (* l_0_1_3 l_0_1_3))) ?x465)))
 (let ((?x475 (+ (+ (- ?x466 ?x467) (* 5.0 (* l_0_1_8 l_0_1_8))) (* 5.0 (* l_0_1_9 l_0_1_9)))))
 (= ?x475 0.0))))))
(assert
 (let ((?x515 (* l_0_1_7 l_0_1_7)))
 (let ((?x516 (* 5.0 ?x515)))
 (let ((?x510 (* l_0_1_25 l_0_1_25)))
 (let ((?x508 (* l_0_1_15 l_0_1_15)))
 (let ((?x506 (* l_0_1_14 l_0_1_14)))
 (let ((?x499 (- (* (* (- _a_0_) l_0_1_1) l_0_1_1) (* (* (* 2.0 _a_1_) l_0_1_1) l_0_1_2))))
 (let ((?x501 (- ?x499 (* _a_3_ (+ (* l_0_1_2 l_0_1_2) (* l_0_1_3 l_0_1_3))))))
 (let ((?x511 (- (- (- (+ ?x501 (* (* 20.0 l_0_1_13) l_0_1_14)) ?x506) ?x508) ?x510)))
 (= (- (+ (- ?x511 (* (* 2.0 l_0_1_7) l_0_1_8)) ?x516) (/ 5.0 2.0)) 0.0))))))))))
(assert
 (let ((?x473 (* l_0_1_9 l_0_1_9)))
 (let ((?x469 (* l_0_1_8 l_0_1_8)))
 (let ((?x508 (* l_0_1_15 l_0_1_15)))
 (let ((?x577 (* 10.0 ?x508)))
 (let ((?x506 (* l_0_1_14 l_0_1_14)))
 (let ((?x575 (* 10.0 ?x506)))
 (let ((?x573 (- (* (* (* (- 2.0) _a_0_) l_0_1_1) l_0_1_2) (* _a_1_ (+ (* l_0_1_2 l_0_1_2) (* l_0_1_3 l_0_1_3))))))
 (let ((?x584 (+ (- (+ (+ ?x573 ?x575) ?x577) (* (* 2.0 l_0_1_25) l_0_1_26)) (* (* 10.0 l_0_1_7) l_0_1_8))))
 (= (- (- (- ?x584 ?x469) ?x473) 4.0) 0.0))))))))))
(assert
 (let ((?x647 (* l_0_1_21 l_0_1_21)))
 (let ((?x648 (* 10.0 ?x647)))
 (let ((?x644 (* l_0_1_20 l_0_1_20)))
 (let ((?x645 (* 10.0 ?x644)))
 (let ((?x634 (+ (* (* 2.0 l_0_1_2) l_0_1_4) (* (* 2.0 l_0_1_3) l_0_1_5))))
 (let ((?x460 (- _a_0_)))
 (let ((?x637 (- (* ?x460 ?x634) (* _a_2_ (+ (* l_0_1_2 l_0_1_2) (* l_0_1_3 l_0_1_3))))))
 (let ((?x643 (+ (+ ?x637 (* (* 10.0 l_0_1_10) l_0_1_8)) (* (* 10.0 l_0_1_11) l_0_1_9))))
 (let ((?x655 (- (- (+ (+ ?x643 ?x645) ?x648) (* (* 2.0 l_0_1_26) l_0_1_28)) (* (* 2.0 l_0_1_27) l_0_1_29))))
 (= (+ ?x655 1.0) 0.0)))))))))))
(assert
 (let ((?x634 (+ (* (* 2.0 l_0_1_2) l_0_1_4) (* (* 2.0 l_0_1_3) l_0_1_5))))
 (let ((?x704 (- (- (* (* (* (- 2.0) _a_0_) l_0_1_1) l_0_1_4) (* _a_1_ ?x634)) (* (* (* 2.0 _a_2_) l_0_1_1) l_0_1_2))))
 (let ((?x709 (- (+ ?x704 (* (* 10.0 l_0_1_10) l_0_1_7)) (* (* 2.0 l_0_1_10) l_0_1_8))))
 (let ((?x715 (+ (- ?x709 (* (* 2.0 l_0_1_11) l_0_1_9)) (* (* 20.0 l_0_1_14) l_0_1_16))))
 (let ((?x721 (+ (+ ?x715 (* (* 20.0 l_0_1_15) l_0_1_17)) (* (* 20.0 l_0_1_19) l_0_1_20))))
 (= (- ?x721 (* (* 2.0 l_0_1_25) l_0_1_28)) 0.0)))))))
(assert
 (let ((?x815 (* l_0_1_30 l_0_1_30)))
 (let ((?x813 (* l_0_1_29 l_0_1_29)))
 (let ((?x811 (* l_0_1_28 l_0_1_28)))
 (let ((?x647 (* l_0_1_21 l_0_1_21)))
 (let ((?x644 (* l_0_1_20 l_0_1_20)))
 (let ((?x800 (* l_0_1_12 l_0_1_12)))
 (let ((?x801 (* 5.0 ?x800)))
 (let ((?x797 (* l_0_1_11 l_0_1_11)))
 (let ((?x798 (* 5.0 ?x797)))
 (let ((?x794 (* l_0_1_10 l_0_1_10)))
 (let ((?x795 (* 5.0 ?x794)))
 (let ((?x634 (+ (* (* 2.0 l_0_1_2) l_0_1_4) (* (* 2.0 l_0_1_3) l_0_1_5))))
 (let ((?x789 (* l_0_1_6 l_0_1_6)))
 (let ((?x790 (+ (+ (* l_0_1_4 l_0_1_4) (* l_0_1_5 l_0_1_5)) ?x789)))
 (let ((?x460 (- _a_0_)))
 (let ((?x805 (+ (+ (+ (+ (- (* ?x460 ?x790) (* _a_2_ ?x634)) ?x795) ?x798) ?x801) (* (* 20.0 l_0_1_20) l_0_1_22))))
 (let ((?x812 (- (- (+ (- ?x805 ?x644) (* (* 20.0 l_0_1_21) l_0_1_23)) ?x647) ?x811)))
 (= (- (- ?x812 ?x813) ?x815) 0.0)))))))))))))))))))
(assert
 (let ((?x515 (* l_0_1_7 l_0_1_7)))
 (let ((?x880 (* l_0_1_13 l_0_1_13)))
 (let ((?x881 (* 10.0 ?x880)))
 (let ((?x876 (- (* (* (- _a_1_) l_0_1_1) l_0_1_1) (* (* (* 2.0 _a_3_) l_0_1_1) l_0_1_2))))
 (= (- (+ (- ?x876 (* (* 2.0 l_0_1_13) l_0_1_14)) ?x881) ?x515) 0.0))))))
(assert
 (let ((?x634 (+ (* (* 2.0 l_0_1_2) l_0_1_4) (* (* 2.0 l_0_1_3) l_0_1_5))))
 (let ((?x911 (- (* (* (* (- 2.0) _a_1_) l_0_1_1) l_0_1_4) (* (* _a_2_ l_0_1_1) l_0_1_1))))
 (let ((?x917 (+ (- (- ?x911 (* _a_3_ ?x634)) (* (* 2.0 l_0_1_10) l_0_1_7)) (* (* 20.0 l_0_1_13) l_0_1_16))))
 (let ((?x923 (- (- ?x917 (* (* 2.0 l_0_1_14) l_0_1_16)) (* (* 2.0 l_0_1_15) l_0_1_17))))
 (= (+ ?x923 (* 10.0 (* l_0_1_19 l_0_1_19))) 0.0))))))
(assert
 (let ((?x986 (* l_0_1_18 l_0_1_18)))
 (let ((?x987 (* 10.0 ?x986)))
 (let ((?x983 (* l_0_1_17 l_0_1_17)))
 (let ((?x984 (* 10.0 ?x983)))
 (let ((?x980 (* l_0_1_16 l_0_1_16)))
 (let ((?x981 (* 10.0 ?x980)))
 (let ((?x800 (* l_0_1_12 l_0_1_12)))
 (let ((?x797 (* l_0_1_11 l_0_1_11)))
 (let ((?x794 (* l_0_1_10 l_0_1_10)))
 (let ((?x789 (* l_0_1_6 l_0_1_6)))
 (let ((?x790 (+ (+ (* l_0_1_4 l_0_1_4) (* l_0_1_5 l_0_1_5)) ?x789)))
 (let ((?x870 (- _a_1_)))
 (let ((?x977 (- (- (* ?x870 ?x790) (* (* (* 2.0 _a_2_) l_0_1_1) l_0_1_4)) ?x794)))
 (let ((?x991 (- (+ (+ (+ (- (- ?x977 ?x797) ?x800) ?x981) ?x984) ?x987) (* (* 2.0 l_0_1_19) l_0_1_20))))
 (= (+ ?x991 (* (* 20.0 l_0_1_19) l_0_1_22)) 0.0))))))))))))))))
(assert
 (let ((?x789 (* l_0_1_6 l_0_1_6)))
 (let ((?x790 (+ (+ (* l_0_1_4 l_0_1_4) (* l_0_1_5 l_0_1_5)) ?x789)))
 (let ((?x1026 (- _a_2_)))
 (let ((?x1039 (- (- (* ?x1026 ?x790) (* (* 2.0 l_0_1_20) l_0_1_22)) (* (* 2.0 l_0_1_21) l_0_1_23))))
 (let ((?x1045 (+ (+ ?x1039 (* 10.0 (* l_0_1_22 l_0_1_22))) (* 10.0 (* l_0_1_23 l_0_1_23)))))
 (= (+ ?x1045 (* 10.0 (* l_0_1_24 l_0_1_24))) 0.0)))))))
(assert
 (= (- (* (* (- _a_3_) l_0_1_1) l_0_1_1) (* l_0_1_13 l_0_1_13)) 0.0))
(assert
 (let ((?x1090 (- (* (* (* (- 2.0) _a_3_) l_0_1_1) l_0_1_4) (* (* 2.0 l_0_1_13) l_0_1_16))))
 (= ?x1090 0.0)))
(assert
 (let ((?x924 (* l_0_1_19 l_0_1_19)))
 (let ((?x986 (* l_0_1_18 l_0_1_18)))
 (let ((?x983 (* l_0_1_17 l_0_1_17)))
 (let ((?x980 (* l_0_1_16 l_0_1_16)))
 (let ((?x789 (* l_0_1_6 l_0_1_6)))
 (let ((?x790 (+ (+ (* l_0_1_4 l_0_1_4) (* l_0_1_5 l_0_1_5)) ?x789)))
 (let ((?x1068 (- _a_3_)))
 (= (- (- (- (- (* ?x1068 ?x790) ?x980) ?x983) ?x986) ?x924) 0.0)))))))))
(assert
 (= (* (* (- 2.0) l_0_1_19) l_0_1_22) 0.0))
(assert
 (let ((?x1046 (* l_0_1_24 l_0_1_24)))
 (= (- (- (* (- l_0_1_22) l_0_1_22) (* l_0_1_23 l_0_1_23)) ?x1046) 0.0)))
(assert
 (>= l_0_1_1 0.0))
(assert
 (>= l_0_1_3 0.0))
(assert
 (>= l_0_1_6 0.0))
(assert
 (>= l_0_1_7 0.0))
(assert
 (>= l_0_1_9 0.0))
(assert
 (>= l_0_1_12 0.0))
(assert
 (>= l_0_1_13 0.0))
(assert
 (>= l_0_1_15 0.0))
(assert
 (>= l_0_1_18 0.0))
(assert
 (>= l_0_1_19 0.0))
(assert
 (>= l_0_1_21 0.0))
(assert
 (>= l_0_1_24 0.0))
(assert
 (>= l_0_1_25 0.0))
(assert
 (>= l_0_1_27 0.0))
(assert
 (>= l_0_1_30 0.0))
(assert
 (let ((?x1172 (* l_0_2_33 l_0_2_33)))
 (let ((?x1170 (* l_0_2_32 l_0_2_32)))
 (let ((?x1168 (* l_0_2_27 l_0_2_27)))
 (let ((?x1166 (* l_0_2_26 l_0_2_26)))
 (let ((?x1167 (- (* (- _a_0_) (+ (* l_0_2_2 l_0_2_2) (* l_0_2_3 l_0_2_3))) ?x1166)))
 (let ((?x1176 (+ (- (- (- ?x1167 ?x1168) ?x1170) ?x1172) (* 5.0 (* l_0_2_8 l_0_2_8)))))
 (= (+ ?x1176 (* 5.0 (* l_0_2_9 l_0_2_9))) 0.0))))))))
(assert
 (let ((?x1219 (* l_0_2_21 l_0_2_21)))
 (let ((?x1220 (* 10.0 ?x1219)))
 (let ((?x1216 (* l_0_2_20 l_0_2_20)))
 (let ((?x1217 (* 10.0 ?x1216)))
 (let ((?x1206 (+ (* (* 2.0 l_0_2_2) l_0_2_4) (* (* 2.0 l_0_2_3) l_0_2_5))))
 (let ((?x460 (- _a_0_)))
 (let ((?x1209 (- (* ?x460 ?x1206) (* _a_2_ (+ (* l_0_2_2 l_0_2_2) (* l_0_2_3 l_0_2_3))))))
 (let ((?x1215 (+ (+ ?x1209 (* (* 10.0 l_0_2_10) l_0_2_8)) (* (* 10.0 l_0_2_11) l_0_2_9))))
 (let ((?x1227 (- (- (+ (+ ?x1215 ?x1217) ?x1220) (* (* 2.0 l_0_2_26) l_0_2_28)) (* (* 2.0 l_0_2_27) l_0_2_29))))
 (let ((?x1233 (- (- ?x1227 (* (* 2.0 l_0_2_32) l_0_2_34)) (* (* 2.0 l_0_2_33) l_0_2_35))))
 (= (- ?x1233 1.0) 0.0))))))))))))
(assert
 (let ((?x1306 (* l_0_2_31 l_0_2_31)))
 (let ((?x1304 (* l_0_2_25 l_0_2_25)))
 (let ((?x1302 (* l_0_2_15 l_0_2_15)))
 (let ((?x1300 (* l_0_2_14 l_0_2_14)))
 (let ((?x1294 (- (* (* (- _a_0_) l_0_2_1) l_0_2_1) (* (* (* 2.0 _a_1_) l_0_2_1) l_0_2_2))))
 (let ((?x1296 (- ?x1294 (* _a_3_ (+ (* l_0_2_2 l_0_2_2) (* l_0_2_3 l_0_2_3))))))
 (let ((?x1305 (- (- (- (+ ?x1296 (* (* 20.0 l_0_2_13) l_0_2_14)) ?x1300) ?x1302) ?x1304)))
 (let ((?x1313 (+ (- (- ?x1305 ?x1306) (* (* 2.0 l_0_2_7) l_0_2_8)) (* 5.0 (* l_0_2_7 l_0_2_7)))))
 (= (+ ?x1313 (/ 7.0 2.0)) 0.0))))))))))
(assert
 (let ((?x1177 (* l_0_2_9 l_0_2_9)))
 (let ((?x1174 (* l_0_2_8 l_0_2_8)))
 (let ((?x1302 (* l_0_2_15 l_0_2_15)))
 (let ((?x1368 (* 10.0 ?x1302)))
 (let ((?x1300 (* l_0_2_14 l_0_2_14)))
 (let ((?x1366 (* 10.0 ?x1300)))
 (let ((?x1365 (- (* (* (* (- 2.0) _a_0_) l_0_2_1) l_0_2_2) (* _a_1_ (+ (* l_0_2_2 l_0_2_2) (* l_0_2_3 l_0_2_3))))))
 (let ((?x1375 (- (- (+ (+ ?x1365 ?x1366) ?x1368) (* (* 2.0 l_0_2_25) l_0_2_26)) (* (* 2.0 l_0_2_31) l_0_2_32))))
 (let ((?x1382 (+ (- (- (+ ?x1375 (* (* 10.0 l_0_2_7) l_0_2_8)) ?x1174) ?x1177) 3.0)))
 (= ?x1382 0.0)))))))))))
(assert
 (let ((?x1206 (+ (* (* 2.0 l_0_2_2) l_0_2_4) (* (* 2.0 l_0_2_3) l_0_2_5))))
 (let ((?x1430 (- (- (* (* (* (- 2.0) _a_0_) l_0_2_1) l_0_2_4) (* _a_1_ ?x1206)) (* (* (* 2.0 _a_2_) l_0_2_1) l_0_2_2))))
 (let ((?x1435 (- (+ ?x1430 (* (* 10.0 l_0_2_10) l_0_2_7)) (* (* 2.0 l_0_2_10) l_0_2_8))))
 (let ((?x1441 (+ (- ?x1435 (* (* 2.0 l_0_2_11) l_0_2_9)) (* (* 20.0 l_0_2_14) l_0_2_16))))
 (let ((?x1447 (+ (+ ?x1441 (* (* 20.0 l_0_2_15) l_0_2_17)) (* (* 20.0 l_0_2_19) l_0_2_20))))
 (let ((?x1451 (- (- ?x1447 (* (* 2.0 l_0_2_25) l_0_2_28)) (* (* 2.0 l_0_2_31) l_0_2_34))))
 (= ?x1451 0.0))))))))
(assert
 (let ((?x1555 (* l_0_2_36 l_0_2_36)))
 (let ((?x1553 (* l_0_2_35 l_0_2_35)))
 (let ((?x1551 (* l_0_2_34 l_0_2_34)))
 (let ((?x1549 (* l_0_2_30 l_0_2_30)))
 (let ((?x1547 (* l_0_2_29 l_0_2_29)))
 (let ((?x1545 (* l_0_2_28 l_0_2_28)))
 (let ((?x1219 (* l_0_2_21 l_0_2_21)))
 (let ((?x1216 (* l_0_2_20 l_0_2_20)))
 (let ((?x1534 (* l_0_2_12 l_0_2_12)))
 (let ((?x1535 (* 5.0 ?x1534)))
 (let ((?x1531 (* l_0_2_11 l_0_2_11)))
 (let ((?x1532 (* 5.0 ?x1531)))
 (let ((?x1528 (* l_0_2_10 l_0_2_10)))
 (let ((?x1529 (* 5.0 ?x1528)))
 (let ((?x1206 (+ (* (* 2.0 l_0_2_2) l_0_2_4) (* (* 2.0 l_0_2_3) l_0_2_5))))
 (let ((?x1523 (* l_0_2_6 l_0_2_6)))
 (let ((?x1524 (+ (+ (* l_0_2_4 l_0_2_4) (* l_0_2_5 l_0_2_5)) ?x1523)))
 (let ((?x460 (- _a_0_)))
 (let ((?x1539 (+ (+ (+ (+ (- (* ?x460 ?x1524) (* _a_2_ ?x1206)) ?x1529) ?x1532) ?x1535) (* (* 20.0 l_0_2_20) l_0_2_22))))
 (let ((?x1546 (- (- (+ (- ?x1539 ?x1216) (* (* 20.0 l_0_2_21) l_0_2_23)) ?x1219) ?x1545)))
 (= (- (- (- (- (- ?x1546 ?x1547) ?x1549) ?x1551) ?x1553) ?x1555) 0.0))))))))))))))))))))))
(assert
 (let ((?x1311 (* l_0_2_7 l_0_2_7)))
 (let ((?x1627 (* l_0_2_13 l_0_2_13)))
 (let ((?x1628 (* 10.0 ?x1627)))
 (let ((?x1623 (- (* (* (- _a_1_) l_0_2_1) l_0_2_1) (* (* (* 2.0 _a_3_) l_0_2_1) l_0_2_2))))
 (= (- (+ (- ?x1623 (* (* 2.0 l_0_2_13) l_0_2_14)) ?x1628) ?x1311) 0.0))))))
(assert
 (let ((?x1206 (+ (* (* 2.0 l_0_2_2) l_0_2_4) (* (* 2.0 l_0_2_3) l_0_2_5))))
 (let ((?x1656 (- (* (* (* (- 2.0) _a_1_) l_0_2_1) l_0_2_4) (* (* _a_2_ l_0_2_1) l_0_2_1))))
 (let ((?x1662 (+ (- (- ?x1656 (* _a_3_ ?x1206)) (* (* 2.0 l_0_2_10) l_0_2_7)) (* (* 20.0 l_0_2_13) l_0_2_16))))
 (let ((?x1668 (- (- ?x1662 (* (* 2.0 l_0_2_14) l_0_2_16)) (* (* 2.0 l_0_2_15) l_0_2_17))))
 (= (+ ?x1668 (* 10.0 (* l_0_2_19 l_0_2_19))) 0.0))))))
(assert
 (let ((?x1731 (* l_0_2_18 l_0_2_18)))
 (let ((?x1732 (* 10.0 ?x1731)))
 (let ((?x1728 (* l_0_2_17 l_0_2_17)))
 (let ((?x1729 (* 10.0 ?x1728)))
 (let ((?x1725 (* l_0_2_16 l_0_2_16)))
 (let ((?x1726 (* 10.0 ?x1725)))
 (let ((?x1534 (* l_0_2_12 l_0_2_12)))
 (let ((?x1531 (* l_0_2_11 l_0_2_11)))
 (let ((?x1528 (* l_0_2_10 l_0_2_10)))
 (let ((?x1523 (* l_0_2_6 l_0_2_6)))
 (let ((?x1524 (+ (+ (* l_0_2_4 l_0_2_4) (* l_0_2_5 l_0_2_5)) ?x1523)))
 (let ((?x870 (- _a_1_)))
 (let ((?x1722 (- (- (* ?x870 ?x1524) (* (* (* 2.0 _a_2_) l_0_2_1) l_0_2_4)) ?x1528)))
 (let ((?x1736 (- (+ (+ (+ (- (- ?x1722 ?x1531) ?x1534) ?x1726) ?x1729) ?x1732) (* (* 2.0 l_0_2_19) l_0_2_20))))
 (= (+ ?x1736 (* (* 20.0 l_0_2_19) l_0_2_22)) 0.0))))))))))))))))
(assert
 (let ((?x1523 (* l_0_2_6 l_0_2_6)))
 (let ((?x1524 (+ (+ (* l_0_2_4 l_0_2_4) (* l_0_2_5 l_0_2_5)) ?x1523)))
 (let ((?x1026 (- _a_2_)))
 (let ((?x1783 (- (- (* ?x1026 ?x1524) (* (* 2.0 l_0_2_20) l_0_2_22)) (* (* 2.0 l_0_2_21) l_0_2_23))))
 (let ((?x1789 (+ (+ ?x1783 (* 10.0 (* l_0_2_22 l_0_2_22))) (* 10.0 (* l_0_2_23 l_0_2_23)))))
 (= (+ ?x1789 (* 10.0 (* l_0_2_24 l_0_2_24))) 0.0)))))))
(assert
 (= (- (* (* (- _a_3_) l_0_2_1) l_0_2_1) (* l_0_2_13 l_0_2_13)) 0.0))
(assert
 (let ((?x1830 (- (* (* (* (- 2.0) _a_3_) l_0_2_1) l_0_2_4) (* (* 2.0 l_0_2_13) l_0_2_16))))
 (= ?x1830 0.0)))
(assert
 (let ((?x1669 (* l_0_2_19 l_0_2_19)))
 (let ((?x1731 (* l_0_2_18 l_0_2_18)))
 (let ((?x1728 (* l_0_2_17 l_0_2_17)))
 (let ((?x1725 (* l_0_2_16 l_0_2_16)))
 (let ((?x1523 (* l_0_2_6 l_0_2_6)))
 (let ((?x1524 (+ (+ (* l_0_2_4 l_0_2_4) (* l_0_2_5 l_0_2_5)) ?x1523)))
 (let ((?x1068 (- _a_3_)))
 (= (- (- (- (- (* ?x1068 ?x1524) ?x1725) ?x1728) ?x1731) ?x1669) 0.0)))))))))
(assert
 (= (* (* (- 2.0) l_0_2_19) l_0_2_22) 0.0))
(assert
 (let ((?x1790 (* l_0_2_24 l_0_2_24)))
 (= (- (- (* (- l_0_2_22) l_0_2_22) (* l_0_2_23 l_0_2_23)) ?x1790) 0.0)))
(assert
 (>= l_0_2_1 0.0))
(assert
 (>= l_0_2_3 0.0))
(assert
 (>= l_0_2_6 0.0))
(assert
 (>= l_0_2_7 0.0))
(assert
 (>= l_0_2_9 0.0))
(assert
 (>= l_0_2_12 0.0))
(assert
 (>= l_0_2_13 0.0))
(assert
 (>= l_0_2_15 0.0))
(assert
 (>= l_0_2_18 0.0))
(assert
 (>= l_0_2_19 0.0))
(assert
 (>= l_0_2_21 0.0))
(assert
 (>= l_0_2_24 0.0))
(assert
 (>= l_0_2_25 0.0))
(assert
 (>= l_0_2_27 0.0))
(assert
 (>= l_0_2_30 0.0))
(assert
 (>= l_0_2_31 0.0))
(assert
 (>= l_0_2_33 0.0))
(assert
 (>= l_0_2_36 0.0))
(assert
 (let ((?x1919 (* l_0_3_27 l_0_3_27)))
 (let ((?x1917 (* l_0_3_26 l_0_3_26)))
 (let ((?x1913 (* (/ 11.0 2.0) _a_2_)))
 (let ((?x1909 (+ (* (- _a_0_) (+ (* l_0_3_2 l_0_3_2) (* l_0_3_3 l_0_3_3))) _a_0_)))
 (let ((?x1918 (- (+ (+ (+ ?x1909 (* 1.0 _a_1_)) ?x1913) (* 1.0 _a_3_)) ?x1917)))
 (let ((?x1926 (- (- (- ?x1918 ?x1919) (* (* 5.0 l_0_3_8) l_0_3_8)) (* (* 5.0 l_0_3_9) l_0_3_9))))
 (= ?x1926 0.0))))))))
(assert
 (let ((?x1946 (* l_0_3_9 l_0_3_9)))
 (let ((?x1940 (* l_0_3_8 l_0_3_8)))
 (let ((?x873 (* 2.0 _a_3_)))
 (let ((?x1913 (* (/ 11.0 2.0) _a_2_)))
 (let ((?x1956 (- (* (* (* (- 2.0) _a_0_) l_0_3_1) l_0_3_2) (* _a_1_ (+ (* l_0_3_2 l_0_3_2) (* l_0_3_3 l_0_3_3))))))
 (let ((?x1962 (- (+ (+ (+ ?x1956 _a_1_) ?x1913) ?x873) (* (* 10.0 l_0_3_14) l_0_3_14))))
 (let ((?x1968 (- (- ?x1962 (* (* 10.0 l_0_3_15) l_0_3_15)) (* (* 2.0 l_0_3_25) l_0_3_26))))
 (= (+ (+ (- ?x1968 (* (* 10.0 l_0_3_7) l_0_3_8)) ?x1940) ?x1946) 0.0)))))))))
(assert
 (let ((?x2020 (+ (* (* 2.0 l_0_3_2) l_0_3_4) (* (* 2.0 l_0_3_3) l_0_3_5))))
 (let ((?x460 (- _a_0_)))
 (let ((?x2023 (- (* ?x460 ?x2020) (* _a_2_ (+ (* l_0_3_2 l_0_3_2) (* l_0_3_3 l_0_3_3))))))
 (let ((?x2030 (- (- (+ ?x2023 _a_2_) (* (* 10.0 l_0_3_10) l_0_3_8)) (* (* 10.0 l_0_3_11) l_0_3_9))))
 (let ((?x2036 (- (- ?x2030 (* (* 10.0 l_0_3_20) l_0_3_20)) (* (* 10.0 l_0_3_21) l_0_3_21))))
 (let ((?x2042 (- (- ?x2036 (* (* 2.0 l_0_3_26) l_0_3_28)) (* (* 2.0 l_0_3_27) l_0_3_29))))
 (= ?x2042 0.0))))))))
(assert
 (let ((?x2116 (* l_0_3_25 l_0_3_25)))
 (let ((?x1996 (* l_0_3_15 l_0_3_15)))
 (let ((?x1990 (* l_0_3_14 l_0_3_14)))
 (let ((?x2107 (- (* (* (- _a_0_) l_0_3_1) l_0_3_1) (* (* (* 2.0 _a_1_) l_0_3_1) l_0_3_2))))
 (let ((?x2109 (- ?x2107 (* _a_3_ (+ (* l_0_3_2 l_0_3_2) (* l_0_3_3 l_0_3_3))))))
 (let ((?x2115 (+ (+ (- (+ ?x2109 _a_3_) (* (* 20.0 l_0_3_13) l_0_3_14)) ?x1990) ?x1996)))
 (let ((?x2123 (- (+ (- ?x2115 ?x2116) (* (* 2.0 l_0_3_7) l_0_3_8)) (* (* 5.0 l_0_3_7) l_0_3_7))))
 (= ?x2123 0.0)))))))))
(assert
 (let ((?x2020 (+ (* (* 2.0 l_0_3_2) l_0_3_4) (* (* 2.0 l_0_3_3) l_0_3_5))))
 (let ((?x2170 (- (- (* (* (* (- 2.0) _a_0_) l_0_3_1) l_0_3_4) (* _a_1_ ?x2020)) (* (* (* 2.0 _a_2_) l_0_3_1) l_0_3_2))))
 (let ((?x2175 (+ (- ?x2170 (* (* 10.0 l_0_3_10) l_0_3_7)) (* (* 2.0 l_0_3_10) l_0_3_8))))
 (let ((?x2181 (- (+ ?x2175 (* (* 2.0 l_0_3_11) l_0_3_9)) (* (* 20.0 l_0_3_14) l_0_3_16))))
 (let ((?x2187 (- (- ?x2181 (* (* 20.0 l_0_3_15) l_0_3_17)) (* (* 20.0 l_0_3_19) l_0_3_20))))
 (= (- ?x2187 (* (* 2.0 l_0_3_25) l_0_3_28)) 0.0)))))))
(assert
 (let ((?x2282 (* l_0_3_30 l_0_3_30)))
 (let ((?x2280 (* l_0_3_29 l_0_3_29)))
 (let ((?x2278 (* l_0_3_28 l_0_3_28)))
 (let ((?x2084 (* l_0_3_21 l_0_3_21)))
 (let ((?x2078 (* l_0_3_20 l_0_3_20)))
 (let ((?x2020 (+ (* (* 2.0 l_0_3_2) l_0_3_4) (* (* 2.0 l_0_3_3) l_0_3_5))))
 (let ((?x2256 (* l_0_3_6 l_0_3_6)))
 (let ((?x2257 (+ (+ (* l_0_3_4 l_0_3_4) (* l_0_3_5 l_0_3_5)) ?x2256)))
 (let ((?x460 (- _a_0_)))
 (let ((?x2263 (- (- (* ?x460 ?x2257) (* _a_2_ ?x2020)) (* (* 5.0 l_0_3_10) l_0_3_10))))
 (let ((?x2269 (- (- ?x2263 (* (* 5.0 l_0_3_11) l_0_3_11)) (* (* 5.0 l_0_3_12) l_0_3_12))))
 (let ((?x2276 (- (+ (- ?x2269 (* (* 20.0 l_0_3_20) l_0_3_22)) ?x2078) (* (* 20.0 l_0_3_21) l_0_3_23))))
 (= (- (- (- (+ ?x2276 ?x2084) ?x2278) ?x2280) ?x2282) 0.0))))))))))))))
(assert
 (let ((?x2158 (* l_0_3_7 l_0_3_7)))
 (let ((?x2355 (- (* (* (- _a_1_) l_0_3_1) l_0_3_1) (* (* (* 2.0 _a_3_) l_0_3_1) l_0_3_2))))
 (let ((?x2361 (- (+ ?x2355 (* (* 2.0 l_0_3_13) l_0_3_14)) (* (* 10.0 l_0_3_13) l_0_3_13))))
 (= (+ ?x2361 ?x2158) 0.0)))))
(assert
 (let ((?x2020 (+ (* (* 2.0 l_0_3_2) l_0_3_4) (* (* 2.0 l_0_3_3) l_0_3_5))))
 (let ((?x2386 (- (* (* (* (- 2.0) _a_1_) l_0_3_1) l_0_3_4) (* (* _a_2_ l_0_3_1) l_0_3_1))))
 (let ((?x2392 (- (+ (- ?x2386 (* _a_3_ ?x2020)) (* (* 2.0 l_0_3_10) l_0_3_7)) (* (* 20.0 l_0_3_13) l_0_3_16))))
 (let ((?x2398 (+ (+ ?x2392 (* (* 2.0 l_0_3_14) l_0_3_16)) (* (* 2.0 l_0_3_15) l_0_3_17))))
 (= (- ?x2398 (* (* 10.0 l_0_3_19) l_0_3_19)) 0.0))))))
(assert
 (let ((?x2321 (* l_0_3_12 l_0_3_12)))
 (let ((?x2315 (* l_0_3_11 l_0_3_11)))
 (let ((?x2309 (* l_0_3_10 l_0_3_10)))
 (let ((?x2256 (* l_0_3_6 l_0_3_6)))
 (let ((?x2257 (+ (+ (* l_0_3_4 l_0_3_4) (* l_0_3_5 l_0_3_5)) ?x2256)))
 (let ((?x870 (- _a_1_)))
 (let ((?x2447 (+ (- (* ?x870 ?x2257) (* (* (* 2.0 _a_2_) l_0_3_1) l_0_3_4)) ?x2309)))
 (let ((?x2455 (- (- (+ (+ ?x2447 ?x2315) ?x2321) (* (* 10.0 l_0_3_16) l_0_3_16)) (* (* 10.0 l_0_3_17) l_0_3_17))))
 (let ((?x2461 (+ (- ?x2455 (* (* 10.0 l_0_3_18) l_0_3_18)) (* (* 2.0 l_0_3_19) l_0_3_20))))
 (= (- ?x2461 (* (* 20.0 l_0_3_19) l_0_3_22)) 0.0)))))))))))
(assert
 (let ((?x2256 (* l_0_3_6 l_0_3_6)))
 (let ((?x2257 (+ (+ (* l_0_3_4 l_0_3_4) (* l_0_3_5 l_0_3_5)) ?x2256)))
 (let ((?x1026 (- _a_2_)))
 (let ((?x2514 (+ (+ (* ?x1026 ?x2257) (* (* 2.0 l_0_3_20) l_0_3_22)) (* (* 2.0 l_0_3_21) l_0_3_23))))
 (let ((?x2520 (- (- ?x2514 (* (* 10.0 l_0_3_22) l_0_3_22)) (* (* 10.0 l_0_3_23) l_0_3_23))))
 (= (- ?x2520 (* (* 10.0 l_0_3_24) l_0_3_24)) 0.0)))))))
(assert
 (= (+ (* (* (- _a_3_) l_0_3_1) l_0_3_1) (* l_0_3_13 l_0_3_13)) 0.0))
(assert
 (let ((?x2565 (+ (* (* (* (- 2.0) _a_3_) l_0_3_1) l_0_3_4) (* (* 2.0 l_0_3_13) l_0_3_16))))
 (= ?x2565 0.0)))
(assert
 (let ((?x2437 (* l_0_3_19 l_0_3_19)))
 (let ((?x2493 (* l_0_3_18 l_0_3_18)))
 (let ((?x2487 (* l_0_3_17 l_0_3_17)))
 (let ((?x2481 (* l_0_3_16 l_0_3_16)))
 (let ((?x2256 (* l_0_3_6 l_0_3_6)))
 (let ((?x2257 (+ (+ (* l_0_3_4 l_0_3_4) (* l_0_3_5 l_0_3_5)) ?x2256)))
 (let ((?x1068 (- _a_3_)))
 (= (+ (+ (+ (+ (* ?x1068 ?x2257) ?x2481) ?x2487) ?x2493) ?x2437) 0.0)))))))))
(assert
 (= (* (* 2.0 l_0_3_19) l_0_3_22) 0.0))
(assert
 (let ((?x2547 (* l_0_3_24 l_0_3_24)))
 (= (+ (+ (* l_0_3_22 l_0_3_22) (* l_0_3_23 l_0_3_23)) ?x2547) 0.0)))
(assert
 (>= l_0_3_1 0.0))
(assert
 (>= l_0_3_3 0.0))
(assert
 (>= l_0_3_6 0.0))
(assert
 (>= l_0_3_7 0.0))
(assert
 (>= l_0_3_9 0.0))
(assert
 (>= l_0_3_12 0.0))
(assert
 (>= l_0_3_13 0.0))
(assert
 (>= l_0_3_15 0.0))
(assert
 (>= l_0_3_18 0.0))
(assert
 (>= l_0_3_19 0.0))
(assert
 (>= l_0_3_21 0.0))
(assert
 (>= l_0_3_24 0.0))
(assert
 (>= l_0_3_25 0.0))
(assert
 (>= l_0_3_27 0.0))
(assert
 (>= l_0_3_30 0.0))
(check-sat)
(get-model)